102020
55,23,12,3,57,43,60,34,49,47,81,72,51,56,17,77,58,74,32,82,22,5,19,48,24,31,53,59,68,44,75,40,11,33,7,27,16,38,2,30,35,28,8,83,79,6,61,15,42,25,69,78,41,52,39,63,4,50,65,18,37,13,1,10,29,64,73,45,46,54,80,62,70,14,67,76,26,36,66,71,21,9,20